81
131
474
84
59
461
122
290
299
364
240
430
293
389
265
13
438
284
51
192
156
293
56
191
256
340
222
378
472
143
100
385
122
373
400
346
453
138
2
138
125
78
181
188
456
62
295
202
93
107
429
474
434
257
322
226
60
326
222
190
161
331
268
361
23
186
30
304
425
483
467
11
260
441
35
337
235
359
193
58
17
309
24
325
376
78
438
127
82
499
235
228
67
228
435
122
417
235
384
31
